(declare-const c_0 Real)
(declare-const c_1 Real)
(declare-const c_2 Real)
(declare-const c_3 Real)
(declare-const c_4 Real)
(declare-const c_5 Real)
(declare-const c_6 Real)
(declare-const c_7 Real)
(declare-const c_8 Real)
(declare-const c_9 Real)
(declare-const c_10 Real)
(declare-const c_11 Real)
(declare-const c_12 Real)
(declare-const c_13 Real)
(declare-const c_14 Real)
(declare-const c_15 Real)
(declare-const c_16 Real)
(declare-const c_17 Real)
(declare-const c_18 Real)
(declare-const c_19 Real)
(declare-const c_20 Real)
(declare-const c_21 Real)
(declare-const c_22 Real)
(declare-const c_23 Real)
(declare-const c_24 Real)
(declare-const c_25 Real)
(declare-const c_26 Real)
(declare-const c_27 Real)
(declare-const c_28 Real)
(declare-const c_29 Real)
(declare-const c_30 Real)
(declare-const c_31 Real)
(declare-const c_32 Real)
(declare-const c_33 Real)
(declare-const c_34 Real)
(declare-const c_35 Real)
(declare-const c_36 Real)
(declare-const c_37 Real)
(declare-const c_38 Real)
(declare-const c_39 Real)
(declare-const c_40 Real)
(declare-const c_41 Real)
(declare-const c_42 Real)
(declare-const c_43 Real)
(declare-const c_44 Real)
(declare-const s_0 Real)
(declare-const s_1 Real)
(declare-const s_2 Real)
(declare-const s_3 Real)
(declare-const s_4 Real)
(declare-const s_5 Real)
(declare-const s_6 Real)
(declare-const s_7 Real)
(declare-const s_8 Real)
(declare-const s_9 Real)
(declare-const s_10 Real)
(declare-const s_11 Real)
(declare-const s_12 Real)
(declare-const s_13 Real)
(declare-const s_14 Real)
(declare-const s_15 Real)
(declare-const s_16 Real)
(declare-const s_17 Real)
(declare-const s_18 Real)
(declare-const s_19 Real)
(declare-const s_20 Real)
(declare-const s_21 Real)
(declare-const s_22 Real)
(declare-const s_23 Real)
(declare-const s_24 Real)
(declare-const s_25 Real)
(declare-const s_26 Real)
(declare-const s_27 Real)
(declare-const s_28 Real)
(declare-const s_29 Real)
(declare-const s_30 Real)
(declare-const s_31 Real)
(declare-const s_32 Real)
(declare-const s_33 Real)
(declare-const s_34 Real)
(declare-const s_35 Real)
(declare-const s_36 Real)
(declare-const s_37 Real)
(declare-const s_38 Real)
(declare-const s_39 Real)
(declare-const s_40 Real)
(declare-const s_41 Real)
(declare-const s_42 Real)
(declare-const s_43 Real)
(declare-const s_44 Real)
(assert (forall ((v1 Real) (v2 Real) (m Real) (n Real) ) (=> (and (>= (+ (* 1024 1) (* 1 v1 ) ) 0) (>= (+ (* 1023 1) (* (- 1) v1 ) ) 0) (>= (+ (* 1024 1) (* 1 v2 ) ) 0) (>= (+ (* 1023 1) (* (- 1) v2 ) ) 0) (>= (+ (* 1024 1) (* 1 m ) ) 0) (>= (+ (* 1023 1) (* (- 1) m ) ) 0) (>= (+ (* 1024 1) (* 1 n ) ) 0) (>= (+ (* 1023 1) (* (- 1) n ) ) 0) ) (>= (+ (* 1 m n s_2 ) (* 1 m s_1 ) (* 1 m s_3 v1 ) (* 1 m s_4 v2 ) (* 1 m m s_5 ) (* 1 n s_6 ) (* 1 n s_7 v1 ) (* 1 n s_8 v2 ) (* 1 n n s_9 ) (* 1 s_0 ) (* 1 s_10 v1 ) (* 1 s_11 v1 v2 ) (* 1 s_12 v1 v1 ) (* 1 s_13 v2 ) (* 1 s_14 v2 v2 ) ) 0) )))
(assert (forall ((v1 Real) (v2 Real) (m Real) (n Real) ) (=> (and (>= (+ (* 1024 1) (* 1 v1 ) ) 0) (>= (+ (* 1023 1) (* (- 1) v1 ) ) 0) (>= (+ (* 1024 1) (* 1 v2 ) ) 0) (>= (+ (* 1023 1) (* (- 1) v2 ) ) 0) (>= (+ (* 1024 1) (* 1 m ) ) 0) (>= (+ (* 1023 1) (* (- 1) m ) ) 0) (>= (+ (* 1024 1) (* 1 n ) ) 0) (>= (+ (* 1023 1) (* (- 1) n ) ) 0) ) (>= (+ (* 1 c_0 ) (* 1 c_1 m ) (* 1 c_10 v1 ) (* 1 c_11 v1 v2 ) (* 1 c_12 v1 v1 ) (* 1 c_13 v2 ) (* 1 c_14 v2 v2 ) (* 1 c_2 m n ) (* 1 c_3 m v1 ) (* 1 c_4 m v2 ) (* 1 c_5 m m ) (* 1 c_6 n ) (* 1 c_7 n v1 ) (* 1 c_8 n v2 ) (* 1 c_9 n n ) ) 0) )))
(assert (forall ((v1 Real) (v2 Real) (m Real) (n Real) ) (=> (and (>= (* 1 n ) 0) (>= (+ (* (- 1) 1) (* 1 m ) ) 0) (>= (+ (* 1024 1) (* 1 v1 ) ) 0) (>= (+ (* 1024 1) (* 1 v2 ) ) 0) (>= (+ (* 1024 1) (* 1 m ) ) 0) (>= (+ (* 1024 1) (* 1 n ) ) 0) (>= (+ (* 1023 1) (* (- 1) n ) ) 0) (>= (+ (* 1023 1) (* (- 1) m ) ) 0) (>= (+ (* 1023 1) (* (- 1) v2 ) ) 0) (>= (+ (* 1023 1) (* (- 1) v1 ) ) 0) (>= (+ (* 1 m n s_2 ) (* 1 m s_1 ) (* 1 m s_3 v1 ) (* 1 m s_4 v2 ) (* 1 m m s_5 ) (* 1 n s_6 ) (* 1 n s_7 v1 ) (* 1 n s_8 v2 ) (* 1 n n s_9 ) (* 1 s_0 ) (* 1 s_10 v1 ) (* 1 s_11 v1 v2 ) (* 1 s_12 v1 v1 ) (* 1 s_13 v2 ) (* 1 s_14 v2 v2 ) ) 0) ) (>= (+ (* 1 m n s_17 ) (* 1 m n s_18 ) (* 1 m s_16 ) (* 1 m m s_20 ) (* 1 n s_21 ) (* 1 n s_25 ) (* 1 n n s_22 ) (* 1 n n s_24 ) (* 1 n n s_27 ) (* 1 s_15 ) ) 0) )))
(assert (forall ((v1 Real) (v2 Real) (m Real) (n Real) ) (=> (and (>= (* 1 n ) 0) (>= (+ (* (- 1) 1) (* 1 m ) ) 0) (>= (+ (* 1024 1) (* 1 v1 ) ) 0) (>= (+ (* 1024 1) (* 1 v2 ) ) 0) (>= (+ (* 1024 1) (* 1 m ) ) 0) (>= (+ (* 1024 1) (* 1 n ) ) 0) (>= (+ (* 1023 1) (* (- 1) n ) ) 0) (>= (+ (* 1023 1) (* (- 1) m ) ) 0) (>= (+ (* 1023 1) (* (- 1) v2 ) ) 0) (>= (+ (* 1023 1) (* (- 1) v1 ) ) 0) (>= (+ (* 1 m n s_2 ) (* 1 m s_1 ) (* 1 m s_3 v1 ) (* 1 m s_4 v2 ) (* 1 m m s_5 ) (* 1 n s_6 ) (* 1 n s_7 v1 ) (* 1 n s_8 v2 ) (* 1 n n s_9 ) (* 1 s_0 ) (* 1 s_10 v1 ) (* 1 s_11 v1 v2 ) (* 1 s_12 v1 v1 ) (* 1 s_13 v2 ) (* 1 s_14 v2 v2 ) ) 0) ) (>= (+ (* 1 c_15 ) (* 1 c_16 m ) (* 1 c_17 m n ) (* 1 c_18 m n ) (* 1 c_20 m m ) (* 1 c_21 n ) (* 1 c_22 n n ) (* 1 c_24 n n ) (* 1 c_25 n ) (* 1 c_27 n n ) ) 0) )))
(assert (forall ((v1 Real) (v2 Real) (m Real) (n Real) ) (=> (and (>= (* 1 n ) 0) (>= (+ (* (- 1) 1) (* 1 m ) ) 0) (>= (+ (* 1024 1) (* 1 v1 ) ) 0) (>= (+ (* 1024 1) (* 1 v2 ) ) 0) (>= (+ (* 1024 1) (* 1 m ) ) 0) (>= (+ (* 1024 1) (* 1 n ) ) 0) (>= (+ (* 1023 1) (* (- 1) n ) ) 0) (>= (+ (* 1023 1) (* (- 1) m ) ) 0) (>= (+ (* 1023 1) (* (- 1) v2 ) ) 0) (>= (+ (* 1023 1) (* (- 1) v1 ) ) 0) (>= (+ (* 1 m n s_2 ) (* 1 m s_1 ) (* 1 m s_3 v1 ) (* 1 m s_4 v2 ) (* 1 m m s_5 ) (* 1 n s_6 ) (* 1 n s_7 v1 ) (* 1 n s_8 v2 ) (* 1 n n s_9 ) (* 1 s_0 ) (* 1 s_10 v1 ) (* 1 s_11 v1 v2 ) (* 1 s_12 v1 v1 ) (* 1 s_13 v2 ) (* 1 s_14 v2 v2 ) ) 0) ) (>= (+ (* (- 1) 1) (* 1 c_0 ) (* 1 c_1 m ) (* 1 c_10 v1 ) (* 1 c_11 v1 v2 ) (* 1 c_12 v1 v1 ) (* 1 c_13 v2 ) (* 1 c_14 v2 v2 ) (* (- 1) c_15 ) (* (- 1) c_16 m ) (* (- 1) c_17 m n ) (* (- 1) c_18 m n ) (* 1 c_2 m n ) (* (- 1) c_20 m m ) (* (- 1) c_21 n ) (* (- 1) c_22 n n ) (* (- 1) c_24 n n ) (* (- 1) c_25 n ) (* (- 1) c_27 n n ) (* 1 c_3 m v1 ) (* 1 c_4 m v2 ) (* 1 c_5 m m ) (* 1 c_6 n ) (* 1 c_7 n v1 ) (* 1 c_8 n v2 ) (* 1 c_9 n n ) ) 0) )))
(assert (forall ((v1 Real) (v2 Real) (m Real) (n Real) ) (=> (and (>= (+ (* (- 1) 1) (* (- 1) n ) ) 0) (>= (+ (* 1024 1) (* 1 v1 ) ) 0) (>= (+ (* 1024 1) (* 1 v2 ) ) 0) (>= (+ (* 1024 1) (* 1 m ) ) 0) (>= (+ (* 1024 1) (* 1 n ) ) 0) (>= (+ (* 1023 1) (* (- 1) n ) ) 0) (>= (+ (* 1023 1) (* (- 1) m ) ) 0) (>= (+ (* 1023 1) (* (- 1) v2 ) ) 0) (>= (+ (* 1023 1) (* (- 1) v1 ) ) 0) (>= (+ (* 1 m n s_2 ) (* 1 m s_1 ) (* 1 m s_3 v1 ) (* 1 m s_4 v2 ) (* 1 m m s_5 ) (* 1 n s_6 ) (* 1 n s_7 v1 ) (* 1 n s_8 v2 ) (* 1 n n s_9 ) (* 1 s_0 ) (* 1 s_10 v1 ) (* 1 s_11 v1 v2 ) (* 1 s_12 v1 v1 ) (* 1 s_13 v2 ) (* 1 s_14 v2 v2 ) ) 0) ) (>= (+ (* 1 m n s_32 ) (* 1 m s_31 ) (* 1 m s_33 v1 ) (* 1 m s_34 v2 ) (* 1 m m s_35 ) (* 1 n s_36 ) (* 1 n s_37 v1 ) (* 1 n s_38 v2 ) (* 1 n n s_39 ) (* 1 s_30 ) (* 1 s_40 v1 ) (* 1 s_41 v1 v2 ) (* 1 s_42 v1 v1 ) (* 1 s_43 v2 ) (* 1 s_44 v2 v2 ) ) 0) )))
(assert (forall ((v1 Real) (v2 Real) (m Real) (n Real) ) (=> (and (>= (+ (* (- 1) 1) (* (- 1) n ) ) 0) (>= (+ (* 1024 1) (* 1 v1 ) ) 0) (>= (+ (* 1024 1) (* 1 v2 ) ) 0) (>= (+ (* 1024 1) (* 1 m ) ) 0) (>= (+ (* 1024 1) (* 1 n ) ) 0) (>= (+ (* 1023 1) (* (- 1) n ) ) 0) (>= (+ (* 1023 1) (* (- 1) m ) ) 0) (>= (+ (* 1023 1) (* (- 1) v2 ) ) 0) (>= (+ (* 1023 1) (* (- 1) v1 ) ) 0) (>= (+ (* 1 m n s_2 ) (* 1 m s_1 ) (* 1 m s_3 v1 ) (* 1 m s_4 v2 ) (* 1 m m s_5 ) (* 1 n s_6 ) (* 1 n s_7 v1 ) (* 1 n s_8 v2 ) (* 1 n n s_9 ) (* 1 s_0 ) (* 1 s_10 v1 ) (* 1 s_11 v1 v2 ) (* 1 s_12 v1 v1 ) (* 1 s_13 v2 ) (* 1 s_14 v2 v2 ) ) 0) ) (>= (+ (* 1 c_30 ) (* 1 c_31 m ) (* 1 c_32 m n ) (* 1 c_33 m v1 ) (* 1 c_34 m v2 ) (* 1 c_35 m m ) (* 1 c_36 n ) (* 1 c_37 n v1 ) (* 1 c_38 n v2 ) (* 1 c_39 n n ) (* 1 c_40 v1 ) (* 1 c_41 v1 v2 ) (* 1 c_42 v1 v1 ) (* 1 c_43 v2 ) (* 1 c_44 v2 v2 ) ) 0) )))
(assert (forall ((v1 Real) (v2 Real) (m Real) (n Real) ) (=> (and (>= (* (- 1) m ) 0) (>= (+ (* 1024 1) (* 1 v1 ) ) 0) (>= (+ (* 1024 1) (* 1 v2 ) ) 0) (>= (+ (* 1024 1) (* 1 m ) ) 0) (>= (+ (* 1024 1) (* 1 n ) ) 0) (>= (+ (* 1023 1) (* (- 1) n ) ) 0) (>= (+ (* 1023 1) (* (- 1) m ) ) 0) (>= (+ (* 1023 1) (* (- 1) v2 ) ) 0) (>= (+ (* 1023 1) (* (- 1) v1 ) ) 0) (>= (+ (* 1 m n s_2 ) (* 1 m s_1 ) (* 1 m s_3 v1 ) (* 1 m s_4 v2 ) (* 1 m m s_5 ) (* 1 n s_6 ) (* 1 n s_7 v1 ) (* 1 n s_8 v2 ) (* 1 n n s_9 ) (* 1 s_0 ) (* 1 s_10 v1 ) (* 1 s_11 v1 v2 ) (* 1 s_12 v1 v1 ) (* 1 s_13 v2 ) (* 1 s_14 v2 v2 ) ) 0) ) (>= (+ (* 1 m n s_32 ) (* 1 m s_31 ) (* 1 m s_33 v1 ) (* 1 m s_34 v2 ) (* 1 m m s_35 ) (* 1 n s_36 ) (* 1 n s_37 v1 ) (* 1 n s_38 v2 ) (* 1 n n s_39 ) (* 1 s_30 ) (* 1 s_40 v1 ) (* 1 s_41 v1 v2 ) (* 1 s_42 v1 v1 ) (* 1 s_43 v2 ) (* 1 s_44 v2 v2 ) ) 0) )))
(assert (forall ((v1 Real) (v2 Real) (m Real) (n Real) ) (=> (and (>= (* (- 1) m ) 0) (>= (+ (* 1024 1) (* 1 v1 ) ) 0) (>= (+ (* 1024 1) (* 1 v2 ) ) 0) (>= (+ (* 1024 1) (* 1 m ) ) 0) (>= (+ (* 1024 1) (* 1 n ) ) 0) (>= (+ (* 1023 1) (* (- 1) n ) ) 0) (>= (+ (* 1023 1) (* (- 1) m ) ) 0) (>= (+ (* 1023 1) (* (- 1) v2 ) ) 0) (>= (+ (* 1023 1) (* (- 1) v1 ) ) 0) (>= (+ (* 1 m n s_2 ) (* 1 m s_1 ) (* 1 m s_3 v1 ) (* 1 m s_4 v2 ) (* 1 m m s_5 ) (* 1 n s_6 ) (* 1 n s_7 v1 ) (* 1 n s_8 v2 ) (* 1 n n s_9 ) (* 1 s_0 ) (* 1 s_10 v1 ) (* 1 s_11 v1 v2 ) (* 1 s_12 v1 v1 ) (* 1 s_13 v2 ) (* 1 s_14 v2 v2 ) ) 0) ) (>= (+ (* 1 c_30 ) (* 1 c_31 m ) (* 1 c_32 m n ) (* 1 c_33 m v1 ) (* 1 c_34 m v2 ) (* 1 c_35 m m ) (* 1 c_36 n ) (* 1 c_37 n v1 ) (* 1 c_38 n v2 ) (* 1 c_39 n n ) (* 1 c_40 v1 ) (* 1 c_41 v1 v2 ) (* 1 c_42 v1 v1 ) (* 1 c_43 v2 ) (* 1 c_44 v2 v2 ) ) 0) )))
(assert (forall ((v1 Real) (v2 Real) (m Real) (n Real) ) (=> (and (>= (+ (* (- 1) 1) (* 1 m ) (* (- 1) v2 ) ) 0) (>= (+ (* (- 1) 1) (* 1 v1 ) ) 0) (>= (+ (* 1 n ) (* (- 1) v1 ) (* (- 1) v2 ) ) 0) (>= (+ (* 1023 1) (* (- 1) n ) ) 0) (>= (* 1 n ) 0) (>= (+ (* (- 1) 1) (* 1 m ) ) 0) (>= (* 1 v2 ) 0) (>= (+ (* 1 m n s_17 ) (* 1 m s_16 ) (* 1 m s_18 v1 ) (* 1 m s_19 v2 ) (* 1 m m s_20 ) (* 1 n s_21 ) (* 1 n s_22 v1 ) (* 1 n s_23 v2 ) (* 1 n n s_24 ) (* 1 s_15 ) (* 1 s_25 v1 ) (* 1 s_26 v1 v2 ) (* 1 s_27 v1 v1 ) (* 1 s_28 v2 ) (* 1 s_29 v2 v2 ) ) 0) ) (>= (+ (* 1 m n s_17 ) (* 1 m s_16 ) (* (- 1) m s_18 ) (* 1 m s_18 v1 ) (* 1 m s_19 ) (* 1 m s_19 v2 ) (* 1 m m s_20 ) (* 1 n s_21 ) (* (- 1) n s_22 ) (* 1 n s_22 v1 ) (* 1 n s_23 ) (* 1 n s_23 v2 ) (* 1 n n s_24 ) (* 1 s_15 ) (* (- 1) s_25 ) (* 1 s_25 v1 ) (* (- 1) s_26 ) (* 1 s_26 v1 ) (* 1 s_26 v1 v2 ) (* (- 1) s_26 v2 ) (* 1 s_27 ) (* (- 2) s_27 v1 ) (* 1 s_27 v1 v1 ) (* 1 s_28 ) (* 1 s_28 v2 ) (* 1 s_29 ) (* 2 s_29 v2 ) (* 1 s_29 v2 v2 ) ) 0) )))
(assert (forall ((v1 Real) (v2 Real) (m Real) (n Real) ) (=> (and (>= (+ (* (- 1) 1) (* 1 m ) (* (- 1) v2 ) ) 0) (>= (+ (* (- 1) 1) (* 1 v1 ) ) 0) (>= (+ (* 1 n ) (* (- 1) v1 ) (* (- 1) v2 ) ) 0) (>= (+ (* 1023 1) (* (- 1) n ) ) 0) (>= (* 1 n ) 0) (>= (+ (* (- 1) 1) (* 1 m ) ) 0) (>= (* 1 v2 ) 0) (>= (+ (* 1 m n s_17 ) (* 1 m s_16 ) (* 1 m s_18 v1 ) (* 1 m s_19 v2 ) (* 1 m m s_20 ) (* 1 n s_21 ) (* 1 n s_22 v1 ) (* 1 n s_23 v2 ) (* 1 n n s_24 ) (* 1 s_15 ) (* 1 s_25 v1 ) (* 1 s_26 v1 v2 ) (* 1 s_27 v1 v1 ) (* 1 s_28 v2 ) (* 1 s_29 v2 v2 ) ) 0) ) (>= (+ (* 1 c_15 ) (* 1 c_16 m ) (* 1 c_17 m n ) (* (- 1) c_18 m ) (* 1 c_18 m v1 ) (* 1 c_19 m ) (* 1 c_19 m v2 ) (* 1 c_20 m m ) (* 1 c_21 n ) (* (- 1) c_22 n ) (* 1 c_22 n v1 ) (* 1 c_23 n ) (* 1 c_23 n v2 ) (* 1 c_24 n n ) (* (- 1) c_25 ) (* 1 c_25 v1 ) (* (- 1) c_26 ) (* 1 c_26 v1 ) (* 1 c_26 v1 v2 ) (* (- 1) c_26 v2 ) (* 1 c_27 ) (* (- 2) c_27 v1 ) (* 1 c_27 v1 v1 ) (* 1 c_28 ) (* 1 c_28 v2 ) (* 1 c_29 ) (* 2 c_29 v2 ) (* 1 c_29 v2 v2 ) ) 0) )))
(assert (forall ((v1 Real) (v2 Real) (m Real) (n Real) ) (=> (and (>= (+ (* (- 1) 1) (* 1 m ) (* (- 1) v2 ) ) 0) (>= (+ (* (- 1) 1) (* 1 v1 ) ) 0) (>= (+ (* 1 n ) (* (- 1) v1 ) (* (- 1) v2 ) ) 0) (>= (+ (* 1023 1) (* (- 1) n ) ) 0) (>= (* 1 n ) 0) (>= (+ (* (- 1) 1) (* 1 m ) ) 0) (>= (* 1 v2 ) 0) (>= (+ (* 1 m n s_17 ) (* 1 m s_16 ) (* 1 m s_18 v1 ) (* 1 m s_19 v2 ) (* 1 m m s_20 ) (* 1 n s_21 ) (* 1 n s_22 v1 ) (* 1 n s_23 v2 ) (* 1 n n s_24 ) (* 1 s_15 ) (* 1 s_25 v1 ) (* 1 s_26 v1 v2 ) (* 1 s_27 v1 v1 ) (* 1 s_28 v2 ) (* 1 s_29 v2 v2 ) ) 0) ) (>= (+ (* (- 1) 1) (* 1 c_18 m ) (* (- 1) c_19 m ) (* 1 c_22 n ) (* (- 1) c_23 n ) (* 1 c_25 ) (* 1 c_26 ) (* (- 1) c_26 v1 ) (* 1 c_26 v2 ) (* (- 1) c_27 ) (* 2 c_27 v1 ) (* (- 1) c_28 ) (* (- 1) c_29 ) (* (- 2) c_29 v2 ) ) 0) )))
(assert (forall ((v1 Real) (v2 Real) (m Real) (n Real) ) (=> (and (>= (+ (* (- 1) m ) (* 1 v2 ) ) 0) (>= (+ (* (- 1) 1) (* 1 v1 ) ) 0) (>= (+ (* 1 n ) (* (- 1) v1 ) (* (- 1) v2 ) ) 0) (>= (+ (* 1023 1) (* (- 1) n ) ) 0) (>= (* 1 n ) 0) (>= (+ (* (- 1) 1) (* 1 m ) ) 0) (>= (* 1 v2 ) 0) (>= (+ (* 1 m n s_17 ) (* 1 m s_16 ) (* 1 m s_18 v1 ) (* 1 m s_19 v2 ) (* 1 m m s_20 ) (* 1 n s_21 ) (* 1 n s_22 v1 ) (* 1 n s_23 v2 ) (* 1 n n s_24 ) (* 1 s_15 ) (* 1 s_25 v1 ) (* 1 s_26 v1 v2 ) (* 1 s_27 v1 v1 ) (* 1 s_28 v2 ) (* 1 s_29 v2 v2 ) ) 0) ) (>= (+ (* 1 m n s_17 ) (* 1 m s_16 ) (* 1 m s_18 v1 ) (* 1 m m s_20 ) (* 1 n s_21 ) (* 1 n s_22 v1 ) (* 1 n n s_24 ) (* 1 s_15 ) (* 1 s_25 v1 ) (* 1 s_27 v1 v1 ) ) 0) )))
(assert (forall ((v1 Real) (v2 Real) (m Real) (n Real) ) (=> (and (>= (+ (* (- 1) m ) (* 1 v2 ) ) 0) (>= (+ (* (- 1) 1) (* 1 v1 ) ) 0) (>= (+ (* 1 n ) (* (- 1) v1 ) (* (- 1) v2 ) ) 0) (>= (+ (* 1023 1) (* (- 1) n ) ) 0) (>= (* 1 n ) 0) (>= (+ (* (- 1) 1) (* 1 m ) ) 0) (>= (* 1 v2 ) 0) (>= (+ (* 1 m n s_17 ) (* 1 m s_16 ) (* 1 m s_18 v1 ) (* 1 m s_19 v2 ) (* 1 m m s_20 ) (* 1 n s_21 ) (* 1 n s_22 v1 ) (* 1 n s_23 v2 ) (* 1 n n s_24 ) (* 1 s_15 ) (* 1 s_25 v1 ) (* 1 s_26 v1 v2 ) (* 1 s_27 v1 v1 ) (* 1 s_28 v2 ) (* 1 s_29 v2 v2 ) ) 0) ) (>= (+ (* 1 c_15 ) (* 1 c_16 m ) (* 1 c_17 m n ) (* 1 c_18 m v1 ) (* 1 c_20 m m ) (* 1 c_21 n ) (* 1 c_22 n v1 ) (* 1 c_24 n n ) (* 1 c_25 v1 ) (* 1 c_27 v1 v1 ) ) 0) )))
(assert (forall ((v1 Real) (v2 Real) (m Real) (n Real) ) (=> (and (>= (+ (* (- 1) m ) (* 1 v2 ) ) 0) (>= (+ (* (- 1) 1) (* 1 v1 ) ) 0) (>= (+ (* 1 n ) (* (- 1) v1 ) (* (- 1) v2 ) ) 0) (>= (+ (* 1023 1) (* (- 1) n ) ) 0) (>= (* 1 n ) 0) (>= (+ (* (- 1) 1) (* 1 m ) ) 0) (>= (* 1 v2 ) 0) (>= (+ (* 1 m n s_17 ) (* 1 m s_16 ) (* 1 m s_18 v1 ) (* 1 m s_19 v2 ) (* 1 m m s_20 ) (* 1 n s_21 ) (* 1 n s_22 v1 ) (* 1 n s_23 v2 ) (* 1 n n s_24 ) (* 1 s_15 ) (* 1 s_25 v1 ) (* 1 s_26 v1 v2 ) (* 1 s_27 v1 v1 ) (* 1 s_28 v2 ) (* 1 s_29 v2 v2 ) ) 0) ) (>= (+ (* (- 1) 1) (* 1 c_19 m v2 ) (* 1 c_23 n v2 ) (* 1 c_26 v1 v2 ) (* 1 c_28 v2 ) (* 1 c_29 v2 v2 ) ) 0) )))
(assert (forall ((v1 Real) (v2 Real) (m Real) (n Real) ) (=> (and (>= (* (- 1) v1 ) 0) (>= (+ (* 1 n ) (* (- 1) v1 ) (* (- 1) v2 ) ) 0) (>= (+ (* 1023 1) (* (- 1) n ) ) 0) (>= (* 1 n ) 0) (>= (+ (* (- 1) 1) (* 1 m ) ) 0) (>= (* 1 v2 ) 0) (>= (+ (* 1 m n s_17 ) (* 1 m s_16 ) (* 1 m s_18 v1 ) (* 1 m s_19 v2 ) (* 1 m m s_20 ) (* 1 n s_21 ) (* 1 n s_22 v1 ) (* 1 n s_23 v2 ) (* 1 n n s_24 ) (* 1 s_15 ) (* 1 s_25 v1 ) (* 1 s_26 v1 v2 ) (* 1 s_27 v1 v1 ) (* 1 s_28 v2 ) (* 1 s_29 v2 v2 ) ) 0) ) (>= (+ (* 1 m n s_32 ) (* 1 m s_31 ) (* 1 m s_33 v1 ) (* 1 m s_34 v2 ) (* 1 m m s_35 ) (* 1 n s_36 ) (* 1 n s_37 v1 ) (* 1 n s_38 v2 ) (* 1 n n s_39 ) (* 1 s_30 ) (* 1 s_40 v1 ) (* 1 s_41 v1 v2 ) (* 1 s_42 v1 v1 ) (* 1 s_43 v2 ) (* 1 s_44 v2 v2 ) ) 0) )))
(assert (forall ((v1 Real) (v2 Real) (m Real) (n Real) ) (=> (and (>= (* (- 1) v1 ) 0) (>= (+ (* 1 n ) (* (- 1) v1 ) (* (- 1) v2 ) ) 0) (>= (+ (* 1023 1) (* (- 1) n ) ) 0) (>= (* 1 n ) 0) (>= (+ (* (- 1) 1) (* 1 m ) ) 0) (>= (* 1 v2 ) 0) (>= (+ (* 1 m n s_17 ) (* 1 m s_16 ) (* 1 m s_18 v1 ) (* 1 m s_19 v2 ) (* 1 m m s_20 ) (* 1 n s_21 ) (* 1 n s_22 v1 ) (* 1 n s_23 v2 ) (* 1 n n s_24 ) (* 1 s_15 ) (* 1 s_25 v1 ) (* 1 s_26 v1 v2 ) (* 1 s_27 v1 v1 ) (* 1 s_28 v2 ) (* 1 s_29 v2 v2 ) ) 0) ) (>= (+ (* 1 c_30 ) (* 1 c_31 m ) (* 1 c_32 m n ) (* 1 c_33 m v1 ) (* 1 c_34 m v2 ) (* 1 c_35 m m ) (* 1 c_36 n ) (* 1 c_37 n v1 ) (* 1 c_38 n v2 ) (* 1 c_39 n n ) (* 1 c_40 v1 ) (* 1 c_41 v1 v2 ) (* 1 c_42 v1 v1 ) (* 1 c_43 v2 ) (* 1 c_44 v2 v2 ) ) 0) )))

(check-sat)
(get-model)
